db/data/2684916964862213293785014490337017330.z3.out
-------------------
2500.124389993
